data/instances/vrp_files/train_49.vrp
NAME : 49
COMMENT : Generated instance No. 49
TYPE : CVRP
DIMENSION : 21
EDGE_WEIGHT_TYPE : EUC_2D
CAPACITY : 30
NODE_COORD_SECTION
 1 544 204
 2 494 512
 3 481 635
 4 90 32
 5 57 444
 6 275 622
 7 992 386
 8 573 415
 9 847 902
 10 877 974
 11 27 839
 12 751 228
 13 956 148
 14 679 224
 15 431 719
 16 563 427
 17 326 839
 18 143 430
 19 903 845
 20 400 763
 21 823 888
DEMAND_SECTION
1 0
2 8
3 9
4 3
5 7
6 9
7 4
8 10
9 3
10 5
11 1
12 3
13 8
14 8
15 4
16 2
17 8
18 8
19 10
20 4
21 3
DEPOT_SECTION
 1
 -1
EOF